tsp_instances/TSP50/instance72.tsp
NODE_COORD_SECTION
0 86 74
1 57 112
2 38 110
3 25 7
4 26 58
5 131 79
6 41 150
7 45 92
8 56 120
9 93 131
10 147 75
11 190 78
12 101 34
13 41 91
14 150 137
15 113 131
16 168 70
17 181 125
18 46 176
19 14 38
20 14 58
21 157 140
22 128 98
23 181 108
24 181 144
25 32 66
26 134 131
27 179 111
28 73 171
29 67 50
30 121 195
31 69 34
32 167 59
33 128 60
34 55 173
35 9 114
36 128 92
37 124 82
38 115 104
39 99 126
40 164 51
41 40 12
42 28 97
43 116 64
44 198 148
45 90 100
46 162 93
47 101 125
48 145 129
49 99 58
