tsp_instances/TSP50/instance72.opt.tour
TOUR_SECTION
1
46
39
23
37
38
6
44
34
11
41
33
17
12
47
24
28
18
45
25
22
15
49
27
16
48
40
10
31
29
35
19
7
9
2
3
36
43
14
8
26
5
21
20
4
42
32
30
13
50
-1